p wcnf 960 1860
2700 -1 -2 3 0
2700 -1 -4 5 0
2700 -1 -6 7 0
2700 -1 -8 9 0
2700 -1 -10 11 0
2700 -1 -12 13 0
2700 -1 -14 15 0
2700 -1 -16 17 0
2700 -1 -18 19 0
2700 -1 -20 21 0
2700 -1 -22 23 0
2700 -1 -24 25 0
2700 -1 -26 27 0
2700 -1 -28 29 0
2700 -1 -30 31 0
2700 -1 -32 33 0
2700 -1 -34 35 0
2700 -1 -36 37 0
2700 -1 -38 39 0
2700 -1 -40 41 0
2700 -1 -42 43 0
2700 -1 -44 45 0
2700 -1 -46 47 0
2700 -1 -48 49 0
2700 -1 -50 51 0
2700 -1 -52 53 0
2700 -1 -54 55 0
2700 -1 -56 57 0
2700 -1 -58 59 0
2700 -1 -60 61 0
2700 -62 -63 3 0
2700 -62 -64 5 0
2700 -62 -65 7 0
2700 -62 -66 9 0
2700 -62 -67 11 0
2700 -62 -68 13 0
2700 -62 -69 15 0
2700 -62 -70 17 0
2700 -62 -71 19 0
2700 -62 -72 21 0
2700 -62 -73 23 0
2700 -62 -74 25 0
2700 -62 -75 27 0
2700 -62 -76 29 0
2700 -62 -77 31 0
2700 -62 -78 33 0
2700 -62 -79 35 0
2700 -62 -80 37 0
2700 -62 -81 39 0
2700 -62 -82 41 0
2700 -62 -83 43 0
2700 -62 -84 45 0
2700 -62 -85 47 0
2700 -62 -86 49 0
2700 -62 -87 51 0
2700 -62 -88 53 0
2700 -62 -89 55 0
2700 -62 -90 57 0
2700 -62 -91 59 0
2700 -62 -92 61 0
2700 -93 -94 3 0
2700 -93 -95 5 0
2700 -93 -96 7 0
2700 -93 -97 9 0
2700 -93 -98 11 0
2700 -93 -99 13 0
2700 -93 -100 15 0
2700 -93 -101 17 0
2700 -93 -102 19 0
2700 -93 -103 21 0
2700 -93 -104 23 0
2700 -93 -105 25 0
2700 -93 -106 27 0
2700 -93 -107 29 0
2700 -93 -108 31 0
2700 -93 -109 33 0
2700 -93 -110 35 0
2700 -93 -111 37 0
2700 -93 -112 39 0
2700 -93 -113 41 0
2700 -93 -114 43 0
2700 -93 -115 45 0
2700 -93 -116 47 0
2700 -93 -117 49 0
2700 -93 -118 51 0
2700 -93 -119 53 0
2700 -93 -120 55 0
2700 -93 -121 57 0
2700 -93 -122 59 0
2700 -93 -123 61 0
2700 -124 -125 3 0
2700 -124 -126 5 0
2700 -124 -127 7 0
2700 -124 -128 9 0
2700 -124 -129 11 0
2700 -124 -130 13 0
2700 -124 -131 15 0
2700 -124 -132 17 0
2700 -124 -133 19 0
2700 -124 -134 21 0
2700 -124 -135 23 0
2700 -124 -136 25 0
2700 -124 -137 27 0
2700 -124 -138 29 0
2700 -124 -139 31 0
2700 -124 -140 33 0
2700 -124 -141 35 0
2700 -124 -142 37 0
2700 -124 -143 39 0
2700 -124 -144 41 0
2700 -124 -145 43 0
2700 -124 -146 45 0
2700 -124 -147 47 0
2700 -124 -148 49 0
2700 -124 -149 51 0
2700 -124 -150 53 0
2700 -124 -151 55 0
2700 -124 -152 57 0
2700 -124 -153 59 0
2700 -124 -154 61 0
2700 -155 -156 3 0
2700 -155 -157 5 0
2700 -155 -158 7 0
2700 -155 -159 9 0
2700 -155 -160 11 0
2700 -155 -161 13 0
2700 -155 -162 15 0
2700 -155 -163 17 0
2700 -155 -164 19 0
2700 -155 -165 21 0
2700 -155 -166 23 0
2700 -155 -167 25 0
2700 -155 -168 27 0
2700 -155 -169 29 0
2700 -155 -170 31 0
2700 -155 -171 33 0
2700 -155 -172 35 0
2700 -155 -173 37 0
2700 -155 -174 39 0
2700 -155 -175 41 0
2700 -155 -176 43 0
2700 -155 -177 45 0
2700 -155 -178 47 0
2700 -155 -179 49 0
2700 -155 -180 51 0
2700 -155 -181 53 0
2700 -155 -182 55 0
2700 -155 -183 57 0
2700 -155 -184 59 0
2700 -155 -185 61 0
2700 -186 -187 3 0
2700 -186 -188 5 0
2700 -186 -189 7 0
2700 -186 -190 9 0
2700 -186 -191 11 0
2700 -186 -192 13 0
2700 -186 -193 15 0
2700 -186 -194 17 0
2700 -186 -195 19 0
2700 -186 -196 21 0
2700 -186 -197 23 0
2700 -186 -198 25 0
2700 -186 -199 27 0
2700 -186 -200 29 0
2700 -186 -201 31 0
2700 -186 -202 33 0
2700 -186 -203 35 0
2700 -186 -204 37 0
2700 -186 -205 39 0
2700 -186 -206 41 0
2700 -186 -207 43 0
2700 -186 -208 45 0
2700 -186 -209 47 0
2700 -186 -210 49 0
2700 -186 -211 51 0
2700 -186 -212 53 0
2700 -186 -213 55 0
2700 -186 -214 57 0
2700 -186 -215 59 0
2700 -186 -216 61 0
2700 -217 -218 3 0
2700 -217 -219 5 0
2700 -217 -220 7 0
2700 -217 -221 9 0
2700 -217 -222 11 0
2700 -217 -223 13 0
2700 -217 -224 15 0
2700 -217 -225 17 0
2700 -217 -226 19 0
2700 -217 -227 21 0
2700 -217 -228 23 0
2700 -217 -229 25 0
2700 -217 -230 27 0
2700 -217 -231 29 0
2700 -217 -232 31 0
2700 -217 -233 33 0
2700 -217 -234 35 0
2700 -217 -235 37 0
2700 -217 -236 39 0
2700 -217 -237 41 0
2700 -217 -238 43 0
2700 -217 -239 45 0
2700 -217 -240 47 0
2700 -217 -241 49 0
2700 -217 -242 51 0
2700 -217 -243 53 0
2700 -217 -244 55 0
2700 -217 -245 57 0
2700 -217 -246 59 0
2700 -217 -247 61 0
2700 -248 -249 3 0
2700 -248 -250 5 0
2700 -248 -251 7 0
2700 -248 -252 9 0
2700 -248 -253 11 0
2700 -248 -254 13 0
2700 -248 -255 15 0
2700 -248 -256 17 0
2700 -248 -257 19 0
2700 -248 -258 21 0
2700 -248 -259 23 0
2700 -248 -260 25 0
2700 -248 -261 27 0
2700 -248 -262 29 0
2700 -248 -263 31 0
2700 -248 -264 33 0
2700 -248 -265 35 0
2700 -248 -266 37 0
2700 -248 -267 39 0
2700 -248 -268 41 0
2700 -248 -269 43 0
2700 -248 -270 45 0
2700 -248 -271 47 0
2700 -248 -272 49 0
2700 -248 -273 51 0
2700 -248 -274 53 0
2700 -248 -275 55 0
2700 -248 -276 57 0
2700 -248 -277 59 0
2700 -248 -278 61 0
2700 -279 -280 3 0
2700 -279 -281 5 0
2700 -279 -282 7 0
2700 -279 -283 9 0
2700 -279 -284 11 0
2700 -279 -285 13 0
2700 -279 -286 15 0
2700 -279 -287 17 0
2700 -279 -288 19 0
2700 -279 -289 21 0
2700 -279 -290 23 0
2700 -279 -291 25 0
2700 -279 -292 27 0
2700 -279 -293 29 0
2700 -279 -294 31 0
2700 -279 -295 33 0
2700 -279 -296 35 0
2700 -279 -297 37 0
2700 -279 -298 39 0
2700 -279 -299 41 0
2700 -279 -300 43 0
2700 -279 -301 45 0
2700 -279 -302 47 0
2700 -279 -303 49 0
2700 -279 -304 51 0
2700 -279 -305 53 0
2700 -279 -306 55 0
2700 -279 -307 57 0
2700 -279 -308 59 0
2700 -279 -309 61 0
2700 -310 -311 3 0
2700 -310 -312 5 0
2700 -310 -313 7 0
2700 -310 -314 9 0
2700 -310 -315 11 0
2700 -310 -316 13 0
2700 -310 -317 15 0
2700 -310 -318 17 0
2700 -310 -319 19 0
2700 -310 -320 21 0
2700 -310 -321 23 0
2700 -310 -322 25 0
2700 -310 -323 27 0
2700 -310 -324 29 0
2700 -310 -325 31 0
2700 -310 -326 33 0
2700 -310 -327 35 0
2700 -310 -328 37 0
2700 -310 -329 39 0
2700 -310 -330 41 0
2700 -310 -331 43 0
2700 -310 -332 45 0
2700 -310 -333 47 0
2700 -310 -334 49 0
2700 -310 -335 51 0
2700 -310 -336 53 0
2700 -310 -337 55 0
2700 -310 -338 57 0
2700 -310 -339 59 0
2700 -310 -340 61 0
2700 -341 -342 3 0
2700 -341 -343 5 0
2700 -341 -344 7 0
2700 -341 -345 9 0
2700 -341 -346 11 0
2700 -341 -347 13 0
2700 -341 -348 15 0
2700 -341 -349 17 0
2700 -341 -350 19 0
2700 -341 -351 21 0
2700 -341 -352 23 0
2700 -341 -353 25 0
2700 -341 -354 27 0
2700 -341 -355 29 0
2700 -341 -356 31 0
2700 -341 -357 33 0
2700 -341 -358 35 0
2700 -341 -359 37 0
2700 -341 -360 39 0
2700 -341 -361 41 0
2700 -341 -362 43 0
2700 -341 -363 45 0
2700 -341 -364 47 0
2700 -341 -365 49 0
2700 -341 -366 51 0
2700 -341 -367 53 0
2700 -341 -368 55 0
2700 -341 -369 57 0
2700 -341 -370 59 0
2700 -341 -371 61 0
2700 -372 -373 3 0
2700 -372 -374 5 0
2700 -372 -375 7 0
2700 -372 -376 9 0
2700 -372 -377 11 0
2700 -372 -378 13 0
2700 -372 -379 15 0
2700 -372 -380 17 0
2700 -372 -381 19 0
2700 -372 -382 21 0
2700 -372 -383 23 0
2700 -372 -384 25 0
2700 -372 -385 27 0
2700 -372 -386 29 0
2700 -372 -387 31 0
2700 -372 -388 33 0
2700 -372 -389 35 0
2700 -372 -390 37 0
2700 -372 -391 39 0
2700 -372 -392 41 0
2700 -372 -393 43 0
2700 -372 -394 45 0
2700 -372 -395 47 0
2700 -372 -396 49 0
2700 -372 -397 51 0
2700 -372 -398 53 0
2700 -372 -399 55 0
2700 -372 -400 57 0
2700 -372 -401 59 0
2700 -372 -402 61 0
2700 -403 -404 3 0
2700 -403 -405 5 0
2700 -403 -406 7 0
2700 -403 -407 9 0
2700 -403 -408 11 0
2700 -403 -409 13 0
2700 -403 -410 15 0
2700 -403 -411 17 0
2700 -403 -412 19 0
2700 -403 -413 21 0
2700 -403 -414 23 0
2700 -403 -415 25 0
2700 -403 -416 27 0
2700 -403 -417 29 0
2700 -403 -418 31 0
2700 -403 -419 33 0
2700 -403 -420 35 0
2700 -403 -421 37 0
2700 -403 -422 39 0
2700 -403 -423 41 0
2700 -403 -424 43 0
2700 -403 -425 45 0
2700 -403 -426 47 0
2700 -403 -427 49 0
2700 -403 -428 51 0
2700 -403 -429 53 0
2700 -403 -430 55 0
2700 -403 -431 57 0
2700 -403 -432 59 0
2700 -403 -433 61 0
2700 -434 -435 3 0
2700 -434 -436 5 0
2700 -434 -437 7 0
2700 -434 -438 9 0
2700 -434 -439 11 0
2700 -434 -440 13 0
2700 -434 -441 15 0
2700 -434 -442 17 0
2700 -434 -443 19 0
2700 -434 -444 21 0
2700 -434 -445 23 0
2700 -434 -446 25 0
2700 -434 -447 27 0
2700 -434 -448 29 0
2700 -434 -449 31 0
2700 -434 -450 33 0
2700 -434 -451 35 0
2700 -434 -452 37 0
2700 -434 -453 39 0
2700 -434 -454 41 0
2700 -434 -455 43 0
2700 -434 -456 45 0
2700 -434 -457 47 0
2700 -434 -458 49 0
2700 -434 -459 51 0
2700 -434 -460 53 0
2700 -434 -461 55 0
2700 -434 -462 57 0
2700 -434 -463 59 0
2700 -434 -464 61 0
2700 -465 -466 3 0
2700 -465 -467 5 0
2700 -465 -468 7 0
2700 -465 -469 9 0
2700 -465 -470 11 0
2700 -465 -471 13 0
2700 -465 -472 15 0
2700 -465 -473 17 0
2700 -465 -474 19 0
2700 -465 -475 21 0
2700 -465 -476 23 0
2700 -465 -477 25 0
2700 -465 -478 27 0
2700 -465 -479 29 0
2700 -465 -480 31 0
2700 -465 -481 33 0
2700 -465 -482 35 0
2700 -465 -483 37 0
2700 -465 -484 39 0
2700 -465 -485 41 0
2700 -465 -486 43 0
2700 -465 -487 45 0
2700 -465 -488 47 0
2700 -465 -489 49 0
2700 -465 -490 51 0
2700 -465 -491 53 0
2700 -465 -492 55 0
2700 -465 -493 57 0
2700 -465 -494 59 0
2700 -465 -495 61 0
2700 -496 -497 3 0
2700 -496 -498 5 0
2700 -496 -499 7 0
2700 -496 -500 9 0
2700 -496 -501 11 0
2700 -496 -502 13 0
2700 -496 -503 15 0
2700 -496 -504 17 0
2700 -496 -505 19 0
2700 -496 -506 21 0
2700 -496 -507 23 0
2700 -496 -508 25 0
2700 -496 -509 27 0
2700 -496 -510 29 0
2700 -496 -511 31 0
2700 -496 -512 33 0
2700 -496 -513 35 0
2700 -496 -514 37 0
2700 -496 -515 39 0
2700 -496 -516 41 0
2700 -496 -517 43 0
2700 -496 -518 45 0
2700 -496 -519 47 0
2700 -496 -520 49 0
2700 -496 -521 51 0
2700 -496 -522 53 0
2700 -496 -523 55 0
2700 -496 -524 57 0
2700 -496 -525 59 0
2700 -496 -526 61 0
2700 -527 -528 3 0
2700 -527 -529 5 0
2700 -527 -530 7 0
2700 -527 -531 9 0
2700 -527 -532 11 0
2700 -527 -533 13 0
2700 -527 -534 15 0
2700 -527 -535 17 0
2700 -527 -536 19 0
2700 -527 -537 21 0
2700 -527 -538 23 0
2700 -527 -539 25 0
2700 -527 -540 27 0
2700 -527 -541 29 0
2700 -527 -542 31 0
2700 -527 -543 33 0
2700 -527 -544 35 0
2700 -527 -545 37 0
2700 -527 -546 39 0
2700 -527 -547 41 0
2700 -527 -548 43 0
2700 -527 -549 45 0
2700 -527 -550 47 0
2700 -527 -551 49 0
2700 -527 -552 51 0
2700 -527 -553 53 0
2700 -527 -554 55 0
2700 -527 -555 57 0
2700 -527 -556 59 0
2700 -527 -557 61 0
2700 -558 -559 3 0
2700 -558 -560 5 0
2700 -558 -561 7 0
2700 -558 -562 9 0
2700 -558 -563 11 0
2700 -558 -564 13 0
2700 -558 -565 15 0
2700 -558 -566 17 0
2700 -558 -567 19 0
2700 -558 -568 21 0
2700 -558 -569 23 0
2700 -558 -570 25 0
2700 -558 -571 27 0
2700 -558 -572 29 0
2700 -558 -573 31 0
2700 -558 -574 33 0
2700 -558 -575 35 0
2700 -558 -576 37 0
2700 -558 -577 39 0
2700 -558 -578 41 0
2700 -558 -579 43 0
2700 -558 -580 45 0
2700 -558 -581 47 0
2700 -558 -582 49 0
2700 -558 -583 51 0
2700 -558 -584 53 0
2700 -558 -585 55 0
2700 -558 -586 57 0
2700 -558 -587 59 0
2700 -558 -588 61 0
2700 -589 -590 3 0
2700 -589 -591 5 0
2700 -589 -592 7 0
2700 -589 -593 9 0
2700 -589 -594 11 0
2700 -589 -595 13 0
2700 -589 -596 15 0
2700 -589 -597 17 0
2700 -589 -598 19 0
2700 -589 -599 21 0
2700 -589 -600 23 0
2700 -589 -601 25 0
2700 -589 -602 27 0
2700 -589 -603 29 0
2700 -589 -604 31 0
2700 -589 -605 33 0
2700 -589 -606 35 0
2700 -589 -607 37 0
2700 -589 -608 39 0
2700 -589 -609 41 0
2700 -589 -610 43 0
2700 -589 -611 45 0
2700 -589 -612 47 0
2700 -589 -613 49 0
2700 -589 -614 51 0
2700 -589 -615 53 0
2700 -589 -616 55 0
2700 -589 -617 57 0
2700 -589 -618 59 0
2700 -589 -619 61 0
2700 -620 -621 3 0
2700 -620 -622 5 0
2700 -620 -623 7 0
2700 -620 -624 9 0
2700 -620 -625 11 0
2700 -620 -626 13 0
2700 -620 -627 15 0
2700 -620 -628 17 0
2700 -620 -629 19 0
2700 -620 -630 21 0
2700 -620 -631 23 0
2700 -620 -632 25 0
2700 -620 -633 27 0
2700 -620 -634 29 0
2700 -620 -635 31 0
2700 -620 -636 33 0
2700 -620 -637 35 0
2700 -620 -638 37 0
2700 -620 -639 39 0
2700 -620 -640 41 0
2700 -620 -641 43 0
2700 -620 -642 45 0
2700 -620 -643 47 0
2700 -620 -644 49 0
2700 -620 -645 51 0
2700 -620 -646 53 0
2700 -620 -647 55 0
2700 -620 -648 57 0
2700 -620 -649 59 0
2700 -620 -650 61 0
2700 -651 -652 3 0
2700 -651 -653 5 0
2700 -651 -654 7 0
2700 -651 -655 9 0
2700 -651 -656 11 0
2700 -651 -657 13 0
2700 -651 -658 15 0
2700 -651 -659 17 0
2700 -651 -660 19 0
2700 -651 -661 21 0
2700 -651 -662 23 0
2700 -651 -663 25 0
2700 -651 -664 27 0
2700 -651 -665 29 0
2700 -651 -666 31 0
2700 -651 -667 33 0
2700 -651 -668 35 0
2700 -651 -669 37 0
2700 -651 -670 39 0
2700 -651 -671 41 0
2700 -651 -672 43 0
2700 -651 -673 45 0
2700 -651 -674 47 0
2700 -651 -675 49 0
2700 -651 -676 51 0
2700 -651 -677 53 0
2700 -651 -678 55 0
2700 -651 -679 57 0
2700 -651 -680 59 0
2700 -651 -681 61 0
2700 -682 -683 3 0
2700 -682 -684 5 0
2700 -682 -685 7 0
2700 -682 -686 9 0
2700 -682 -687 11 0
2700 -682 -688 13 0
2700 -682 -689 15 0
2700 -682 -690 17 0
2700 -682 -691 19 0
2700 -682 -692 21 0
2700 -682 -693 23 0
2700 -682 -694 25 0
2700 -682 -695 27 0
2700 -682 -696 29 0
2700 -682 -697 31 0
2700 -682 -698 33 0
2700 -682 -699 35 0
2700 -682 -700 37 0
2700 -682 -701 39 0
2700 -682 -702 41 0
2700 -682 -703 43 0
2700 -682 -704 45 0
2700 -682 -705 47 0
2700 -682 -706 49 0
2700 -682 -707 51 0
2700 -682 -708 53 0
2700 -682 -709 55 0
2700 -682 -710 57 0
2700 -682 -711 59 0
2700 -682 -712 61 0
2700 -713 -714 3 0
2700 -713 -715 5 0
2700 -713 -716 7 0
2700 -713 -717 9 0
2700 -713 -718 11 0
2700 -713 -719 13 0
2700 -713 -720 15 0
2700 -713 -721 17 0
2700 -713 -722 19 0
2700 -713 -723 21 0
2700 -713 -724 23 0
2700 -713 -725 25 0
2700 -713 -726 27 0
2700 -713 -727 29 0
2700 -713 -728 31 0
2700 -713 -729 33 0
2700 -713 -730 35 0
2700 -713 -731 37 0
2700 -713 -732 39 0
2700 -713 -733 41 0
2700 -713 -734 43 0
2700 -713 -735 45 0
2700 -713 -736 47 0
2700 -713 -737 49 0
2700 -713 -738 51 0
2700 -713 -739 53 0
2700 -713 -740 55 0
2700 -713 -741 57 0
2700 -713 -742 59 0
2700 -713 -743 61 0
2700 -744 -745 3 0
2700 -744 -746 5 0
2700 -744 -747 7 0
2700 -744 -748 9 0
2700 -744 -749 11 0
2700 -744 -750 13 0
2700 -744 -751 15 0
2700 -744 -752 17 0
2700 -744 -753 19 0
2700 -744 -754 21 0
2700 -744 -755 23 0
2700 -744 -756 25 0
2700 -744 -757 27 0
2700 -744 -758 29 0
2700 -744 -759 31 0
2700 -744 -760 33 0
2700 -744 -761 35 0
2700 -744 -762 37 0
2700 -744 -763 39 0
2700 -744 -764 41 0
2700 -744 -765 43 0
2700 -744 -766 45 0
2700 -744 -767 47 0
2700 -744 -768 49 0
2700 -744 -769 51 0
2700 -744 -770 53 0
2700 -744 -771 55 0
2700 -744 -772 57 0
2700 -744 -773 59 0
2700 -744 -774 61 0
2700 -775 -776 3 0
2700 -775 -777 5 0
2700 -775 -778 7 0
2700 -775 -779 9 0
2700 -775 -780 11 0
2700 -775 -781 13 0
2700 -775 -782 15 0
2700 -775 -783 17 0
2700 -775 -784 19 0
2700 -775 -785 21 0
2700 -775 -786 23 0
2700 -775 -787 25 0
2700 -775 -788 27 0
2700 -775 -789 29 0
2700 -775 -790 31 0
2700 -775 -791 33 0
2700 -775 -792 35 0
2700 -775 -793 37 0
2700 -775 -794 39 0
2700 -775 -795 41 0
2700 -775 -796 43 0
2700 -775 -797 45 0
2700 -775 -798 47 0
2700 -775 -799 49 0
2700 -775 -800 51 0
2700 -775 -801 53 0
2700 -775 -802 55 0
2700 -775 -803 57 0
2700 -775 -804 59 0
2700 -775 -805 61 0
2700 -806 -807 3 0
2700 -806 -808 5 0
2700 -806 -809 7 0
2700 -806 -810 9 0
2700 -806 -811 11 0
2700 -806 -812 13 0
2700 -806 -813 15 0
2700 -806 -814 17 0
2700 -806 -815 19 0
2700 -806 -816 21 0
2700 -806 -817 23 0
2700 -806 -818 25 0
2700 -806 -819 27 0
2700 -806 -820 29 0
2700 -806 -821 31 0
2700 -806 -822 33 0
2700 -806 -823 35 0
2700 -806 -824 37 0
2700 -806 -825 39 0
2700 -806 -826 41 0
2700 -806 -827 43 0
2700 -806 -828 45 0
2700 -806 -829 47 0
2700 -806 -830 49 0
2700 -806 -831 51 0
2700 -806 -832 53 0
2700 -806 -833 55 0
2700 -806 -834 57 0
2700 -806 -835 59 0
2700 -806 -836 61 0
2700 -837 -838 3 0
2700 -837 -839 5 0
2700 -837 -840 7 0
2700 -837 -841 9 0
2700 -837 -842 11 0
2700 -837 -843 13 0
2700 -837 -844 15 0
2700 -837 -845 17 0
2700 -837 -846 19 0
2700 -837 -847 21 0
2700 -837 -848 23 0
2700 -837 -849 25 0
2700 -837 -850 27 0
2700 -837 -851 29 0
2700 -837 -852 31 0
2700 -837 -853 33 0
2700 -837 -854 35 0
2700 -837 -855 37 0
2700 -837 -856 39 0
2700 -837 -857 41 0
2700 -837 -858 43 0
2700 -837 -859 45 0
2700 -837 -860 47 0
2700 -837 -861 49 0
2700 -837 -862 51 0
2700 -837 -863 53 0
2700 -837 -864 55 0
2700 -837 -865 57 0
2700 -837 -866 59 0
2700 -837 -867 61 0
2700 -868 -869 3 0
2700 -868 -870 5 0
2700 -868 -871 7 0
2700 -868 -872 9 0
2700 -868 -873 11 0
2700 -868 -874 13 0
2700 -868 -875 15 0
2700 -868 -876 17 0
2700 -868 -877 19 0
2700 -868 -878 21 0
2700 -868 -879 23 0
2700 -868 -880 25 0
2700 -868 -881 27 0
2700 -868 -882 29 0
2700 -868 -883 31 0
2700 -868 -884 33 0
2700 -868 -885 35 0
2700 -868 -886 37 0
2700 -868 -887 39 0
2700 -868 -888 41 0
2700 -868 -889 43 0
2700 -868 -890 45 0
2700 -868 -891 47 0
2700 -868 -892 49 0
2700 -868 -893 51 0
2700 -868 -894 53 0
2700 -868 -895 55 0
2700 -868 -896 57 0
2700 -868 -897 59 0
2700 -868 -898 61 0
2700 -899 -900 3 0
2700 -899 -901 5 0
2700 -899 -902 7 0
2700 -899 -903 9 0
2700 -899 -904 11 0
2700 -899 -905 13 0
2700 -899 -906 15 0
2700 -899 -907 17 0
2700 -899 -908 19 0
2700 -899 -909 21 0
2700 -899 -910 23 0
2700 -899 -911 25 0
2700 -899 -912 27 0
2700 -899 -913 29 0
2700 -899 -914 31 0
2700 -899 -915 33 0
2700 -899 -916 35 0
2700 -899 -917 37 0
2700 -899 -918 39 0
2700 -899 -919 41 0
2700 -899 -920 43 0
2700 -899 -921 45 0
2700 -899 -922 47 0
2700 -899 -923 49 0
2700 -899 -924 51 0
2700 -899 -925 53 0
2700 -899 -926 55 0
2700 -899 -927 57 0
2700 -899 -928 59 0
2700 -899 -929 61 0
2700 -930 -931 3 0
2700 -930 -932 5 0
2700 -930 -933 7 0
2700 -930 -934 9 0
2700 -930 -935 11 0
2700 -930 -936 13 0
2700 -930 -937 15 0
2700 -930 -938 17 0
2700 -930 -939 19 0
2700 -930 -940 21 0
2700 -930 -941 23 0
2700 -930 -942 25 0
2700 -930 -943 27 0
2700 -930 -944 29 0
2700 -930 -945 31 0
2700 -930 -946 33 0
2700 -930 -947 35 0
2700 -930 -948 37 0
2700 -930 -949 39 0
2700 -930 -950 41 0
2700 -930 -951 43 0
2700 -930 -952 45 0
2700 -930 -953 47 0
2700 -930 -954 49 0
2700 -930 -955 51 0
2700 -930 -956 53 0
2700 -930 -957 55 0
2700 -930 -958 57 0
2700 -930 -959 59 0
2700 -930 -960 61 0
30 1 0
30 62 0
30 93 0
30 124 0
30 155 0
30 186 0
30 217 0
30 248 0
30 279 0
30 310 0
30 341 0
30 372 0
30 403 0
30 434 0
30 465 0
30 496 0
30 527 0
30 558 0
30 589 0
30 620 0
30 651 0
30 682 0
30 713 0
30 744 0
30 775 0
30 806 0
30 837 0
30 868 0
30 899 0
30 930 0
5 2 0
5 4 0
5 6 0
5 8 0
5 10 0
5 12 0
5 14 0
5 16 0
5 18 0
5 20 0
5 22 0
5 24 0
5 26 0
5 28 0
5 30 0
5 32 0
5 34 0
5 36 0
5 38 0
5 40 0
5 42 0
5 44 0
5 46 0
5 48 0
5 50 0
5 52 0
5 54 0
5 56 0
5 58 0
5 60 0
5 63 0
5 64 0
5 65 0
5 66 0
5 67 0
5 68 0
5 69 0
5 70 0
5 71 0
5 72 0
5 73 0
5 74 0
5 75 0
5 76 0
5 77 0
5 78 0
5 79 0
5 80 0
5 81 0
5 82 0
5 83 0
5 84 0
5 85 0
5 86 0
5 87 0
5 88 0
5 89 0
5 90 0
5 91 0
5 92 0
5 94 0
5 95 0
5 96 0
5 97 0
5 98 0
5 99 0
5 100 0
5 101 0
5 102 0
5 103 0
5 104 0
5 105 0
5 106 0
5 107 0
5 108 0
5 109 0
5 110 0
5 111 0
5 112 0
5 113 0
5 114 0
5 115 0
5 116 0
5 117 0
5 118 0
5 119 0
5 120 0
5 121 0
5 122 0
5 123 0
5 125 0
5 126 0
5 127 0
5 128 0
5 129 0
5 130 0
5 131 0
5 132 0
5 133 0
5 134 0
5 135 0
5 136 0
5 137 0
5 138 0
5 139 0
5 140 0
5 141 0
5 142 0
5 143 0
5 144 0
5 145 0
5 146 0
5 147 0
5 148 0
5 149 0
5 150 0
5 151 0
5 152 0
5 153 0
5 154 0
5 156 0
5 157 0
5 158 0
5 159 0
5 160 0
5 161 0
5 162 0
5 163 0
5 164 0
5 165 0
5 166 0
5 167 0
5 168 0
5 169 0
5 170 0
5 171 0
5 172 0
5 173 0
5 174 0
5 175 0
5 176 0
5 177 0
5 178 0
5 179 0
5 180 0
5 181 0
5 182 0
5 183 0
5 184 0
5 185 0
5 187 0
5 188 0
5 189 0
5 190 0
5 191 0
5 192 0
5 193 0
5 194 0
5 195 0
5 196 0
5 197 0
5 198 0
5 199 0
5 200 0
5 201 0
5 202 0
5 203 0
5 204 0
5 205 0
5 206 0
5 207 0
5 208 0
5 209 0
5 210 0
5 211 0
5 212 0
5 213 0
5 214 0
5 215 0
5 216 0
5 218 0
5 219 0
5 220 0
5 221 0
5 222 0
5 223 0
5 224 0
5 225 0
5 226 0
5 227 0
5 228 0
5 229 0
5 230 0
5 231 0
5 232 0
5 233 0
5 234 0
5 235 0
5 236 0
5 237 0
5 238 0
5 239 0
5 240 0
5 241 0
5 242 0
5 243 0
5 244 0
5 245 0
5 246 0
5 247 0
5 249 0
5 250 0
5 251 0
5 252 0
5 253 0
5 254 0
5 255 0
5 256 0
5 257 0
5 258 0
5 259 0
5 260 0
5 261 0
5 262 0
5 263 0
5 264 0
5 265 0
5 266 0
5 267 0
5 268 0
5 269 0
5 270 0
5 271 0
5 272 0
5 273 0
5 274 0
5 275 0
5 276 0
5 277 0
5 278 0
5 280 0
5 281 0
5 282 0
5 283 0
5 284 0
5 285 0
5 286 0
5 287 0
5 288 0
5 289 0
5 290 0
5 291 0
5 292 0
5 293 0
5 294 0
5 295 0
5 296 0
5 297 0
5 298 0
5 299 0
5 300 0
5 301 0
5 302 0
5 303 0
5 304 0
5 305 0
5 306 0
5 307 0
5 308 0
5 309 0
5 311 0
5 312 0
5 313 0
5 314 0
5 315 0
5 316 0
5 317 0
5 318 0
5 319 0
5 320 0
5 321 0
5 322 0
5 323 0
5 324 0
5 325 0
5 326 0
5 327 0
5 328 0
5 329 0
5 330 0
5 331 0
5 332 0
5 333 0
5 334 0
5 335 0
5 336 0
5 337 0
5 338 0
5 339 0
5 340 0
5 342 0
5 343 0
5 344 0
5 345 0
5 346 0
5 347 0
5 348 0
5 349 0
5 350 0
5 351 0
5 352 0
5 353 0
5 354 0
5 355 0
5 356 0
5 357 0
5 358 0
5 359 0
5 360 0
5 361 0
5 362 0
5 363 0
5 364 0
5 365 0
5 366 0
5 367 0
5 368 0
5 369 0
5 370 0
5 371 0
5 373 0
5 374 0
5 375 0
5 376 0
5 377 0
5 378 0
5 379 0
5 380 0
5 381 0
5 382 0
5 383 0
5 384 0
5 385 0
5 386 0
5 387 0
5 388 0
5 389 0
5 390 0
5 391 0
5 392 0
5 393 0
5 394 0
5 395 0
5 396 0
5 397 0
5 398 0
5 399 0
5 400 0
5 401 0
5 402 0
5 404 0
5 405 0
5 406 0
5 407 0
5 408 0
5 409 0
5 410 0
5 411 0
5 412 0
5 413 0
5 414 0
5 415 0
5 416 0
5 417 0
5 418 0
5 419 0
5 420 0
5 421 0
5 422 0
5 423 0
5 424 0
5 425 0
5 426 0
5 427 0
5 428 0
5 429 0
5 430 0
5 431 0
5 432 0
5 433 0
5 435 0
5 436 0
5 437 0
5 438 0
5 439 0
5 440 0
5 441 0
5 442 0
5 443 0
5 444 0
5 445 0
5 446 0
5 447 0
5 448 0
5 449 0
5 450 0
5 451 0
5 452 0
5 453 0
5 454 0
5 455 0
5 456 0
5 457 0
5 458 0
5 459 0
5 460 0
5 461 0
5 462 0
5 463 0
5 464 0
5 466 0
5 467 0
5 468 0
5 469 0
5 470 0
5 471 0
5 472 0
5 473 0
5 474 0
5 475 0
5 476 0
5 477 0
5 478 0
5 479 0
5 480 0
5 481 0
5 482 0
5 483 0
5 484 0
5 485 0
5 486 0
5 487 0
5 488 0
5 489 0
5 490 0
5 491 0
5 492 0
5 493 0
5 494 0
5 495 0
5 497 0
5 498 0
5 499 0
5 500 0
5 501 0
5 502 0
5 503 0
5 504 0
5 505 0
5 506 0
5 507 0
5 508 0
5 509 0
5 510 0
5 511 0
5 512 0
5 513 0
5 514 0
5 515 0
5 516 0
5 517 0
5 518 0
5 519 0
5 520 0
5 521 0
5 522 0
5 523 0
5 524 0
5 525 0
5 526 0
5 528 0
5 529 0
5 530 0
5 531 0
5 532 0
5 533 0
5 534 0
5 535 0
5 536 0
5 537 0
5 538 0
5 539 0
5 540 0
5 541 0
5 542 0
5 543 0
5 544 0
5 545 0
5 546 0
5 547 0
5 548 0
5 549 0
5 550 0
5 551 0
5 552 0
5 553 0
5 554 0
5 555 0
5 556 0
5 557 0
5 559 0
5 560 0
5 561 0
5 562 0
5 563 0
5 564 0
5 565 0
5 566 0
5 567 0
5 568 0
5 569 0
5 570 0
5 571 0
5 572 0
5 573 0
5 574 0
5 575 0
5 576 0
5 577 0
5 578 0
5 579 0
5 580 0
5 581 0
5 582 0
5 583 0
5 584 0
5 585 0
5 586 0
5 587 0
5 588 0
5 590 0
5 591 0
5 592 0
5 593 0
5 594 0
5 595 0
5 596 0
5 597 0
5 598 0
5 599 0
5 600 0
5 601 0
5 602 0
5 603 0
5 604 0
5 605 0
5 606 0
5 607 0
5 608 0
5 609 0
5 610 0
5 611 0
5 612 0
5 613 0
5 614 0
5 615 0
5 616 0
5 617 0
5 618 0
5 619 0
5 621 0
5 622 0
5 623 0
5 624 0
5 625 0
5 626 0
5 627 0
5 628 0
5 629 0
5 630 0
5 631 0
5 632 0
5 633 0
5 634 0
5 635 0
5 636 0
5 637 0
5 638 0
5 639 0
5 640 0
5 641 0
5 642 0
5 643 0
5 644 0
5 645 0
5 646 0
5 647 0
5 648 0
5 649 0
5 650 0
5 652 0
5 653 0
5 654 0
5 655 0
5 656 0
5 657 0
5 658 0
5 659 0
5 660 0
5 661 0
5 662 0
5 663 0
5 664 0
5 665 0
5 666 0
5 667 0
5 668 0
5 669 0
5 670 0
5 671 0
5 672 0
5 673 0
5 674 0
5 675 0
5 676 0
5 677 0
5 678 0
5 679 0
5 680 0
5 681 0
5 683 0
5 684 0
5 685 0
5 686 0
5 687 0
5 688 0
5 689 0
5 690 0
5 691 0
5 692 0
5 693 0
5 694 0
5 695 0
5 696 0
5 697 0
5 698 0
5 699 0
5 700 0
5 701 0
5 702 0
5 703 0
5 704 0
5 705 0
5 706 0
5 707 0
5 708 0
5 709 0
5 710 0
5 711 0
5 712 0
5 714 0
5 715 0
5 716 0
5 717 0
5 718 0
5 719 0
5 720 0
5 721 0
5 722 0
5 723 0
5 724 0
5 725 0
5 726 0
5 727 0
5 728 0
5 729 0
5 730 0
5 731 0
5 732 0
5 733 0
5 734 0
5 735 0
5 736 0
5 737 0
5 738 0
5 739 0
5 740 0
5 741 0
5 742 0
5 743 0
5 745 0
5 746 0
5 747 0
5 748 0
5 749 0
5 750 0
5 751 0
5 752 0
5 753 0
5 754 0
5 755 0
5 756 0
5 757 0
5 758 0
5 759 0
5 760 0
5 761 0
5 762 0
5 763 0
5 764 0
5 765 0
5 766 0
5 767 0
5 768 0
5 769 0
5 770 0
5 771 0
5 772 0
5 773 0
5 774 0
5 776 0
5 777 0
5 778 0
5 779 0
5 780 0
5 781 0
5 782 0
5 783 0
5 784 0
5 785 0
5 786 0
5 787 0
5 788 0
5 789 0
5 790 0
5 791 0
5 792 0
5 793 0
5 794 0
5 795 0
5 796 0
5 797 0
5 798 0
5 799 0
5 800 0
5 801 0
5 802 0
5 803 0
5 804 0
5 805 0
5 807 0
5 808 0
5 809 0
5 810 0
5 811 0
5 812 0
5 813 0
5 814 0
5 815 0
5 816 0
5 817 0
5 818 0
5 819 0
5 820 0
5 821 0
5 822 0
5 823 0
5 824 0
5 825 0
5 826 0
5 827 0
5 828 0
5 829 0
5 830 0
5 831 0
5 832 0
5 833 0
5 834 0
5 835 0
5 836 0
5 838 0
5 839 0
5 840 0
5 841 0
5 842 0
5 843 0
5 844 0
5 845 0
5 846 0
5 847 0
5 848 0
5 849 0
5 850 0
5 851 0
5 852 0
5 853 0
5 854 0
5 855 0
5 856 0
5 857 0
5 858 0
5 859 0
5 860 0
5 861 0
5 862 0
5 863 0
5 864 0
5 865 0
5 866 0
5 867 0
5 869 0
5 870 0
5 871 0
5 872 0
5 873 0
5 874 0
5 875 0
5 876 0
5 877 0
5 878 0
5 879 0
5 880 0
5 881 0
5 882 0
5 883 0
5 884 0
5 885 0
5 886 0
5 887 0
5 888 0
5 889 0
5 890 0
5 891 0
5 892 0
5 893 0
5 894 0
5 895 0
5 896 0
5 897 0
5 898 0
5 900 0
5 901 0
5 902 0
5 903 0
5 904 0
5 905 0
5 906 0
5 907 0
5 908 0
5 909 0
5 910 0
5 911 0
5 912 0
5 913 0
5 914 0
5 915 0
5 916 0
5 917 0
5 918 0
5 919 0
5 920 0
5 921 0
5 922 0
5 923 0
5 924 0
5 925 0
5 926 0
5 927 0
5 928 0
5 929 0
5 931 0
5 932 0
5 933 0
5 934 0
5 935 0
5 936 0
5 937 0
5 938 0
5 939 0
5 940 0
5 941 0
5 942 0
5 943 0
5 944 0
5 945 0
5 946 0
5 947 0
5 948 0
5 949 0
5 950 0
5 951 0
5 952 0
5 953 0
5 954 0
5 955 0
5 956 0
5 957 0
5 958 0
5 959 0
5 960 0
60 -3 0
60 -5 0
60 -7 0
60 -9 0
60 -11 0
60 -13 0
60 -15 0
60 -17 0
60 -19 0
60 -21 0
60 -23 0
60 -25 0
60 -27 0
60 -29 0
60 -31 0
60 -33 0
60 -35 0
60 -37 0
60 -39 0
60 -41 0
60 -43 0
60 -45 0
60 -47 0
60 -49 0
60 -51 0
60 -53 0
60 -55 0
60 -57 0
60 -59 0
60 -61 0
